/*********************************************
 * OPL 22.1.1.0 Data
 * Author: Valentina 
 * Creation Date: 07/06/2023 at 15:17:48
 *********************************************/

 n = 7; 
 InputBoard = [
 	[-1, -1, -1, 1, -1, -1, -1], 
 	[-1, -1, -1, -1, -1, 7, -1], 
 	[2, -1, -1, -1, -1, -1, -1], 
 	[-1, 1, -1, -1, -1, -1, -1],
 	[-1, -1, -1, -1, 6, -1, -1],
 	[-1, -1, 5, -1, -1, -1, -1],
 	[-1, -1, -1, -1, -1, -1, 9]
 ];